language ESSENCE' 1.0
letting AssignmentMatrix be [[1, 1, 1, 0, 0, 0, 0, 0], 
[0, 0, 0, 1, 1, 0, 0, 0], 
[0, 0, 0, 0, 0, 0, 0, 0], 
[0, 0, 0, 0, 0, 1, 0, 0], 
[0, 0, 0, 0, 0, 0, 1, 1]]
letting CPU be [2, 2, 2, 2, 2, 4, 4, 4]
letting Memory be [3750, 3750, 3750, 3750, 3750, 7500, 7500, 7500]
letting Price be [116, 116, 116, 116, 116, 210, 210, 210]
letting Storage be [2000, 2000, 2000, 2000, 2000, 2000, 2000, 2000]
letting VMType be [433, 433, 433, 433, 433, 341, 341, 341]
